453959
49,45,33,5,30,12,80,74,34,43,79,47,96,60,32,53,86,98,51,93,89,28,76,54,85,91,105,67,41,104,38,72,69,50,9,2,106,8,29,97,46,10,66,59,44,87,1,23,21,62,25,6,88,36,35,42,55,18,100,99,103,101,102,77,64,20,92,31,16,56,19,27,58,70,61,63,73,82,48,94,95,11,65,81,68,15,39,75,84,13,90,71,17,37,3,7,4,24,78,14,26,83,22,40,57,52